Problem:    
Rows:       12
Columns:    21 (20 integer, 20 binary)
Non-zeros:  58
Status:     INTEGER OPTIMAL
Objective:  OBJ = 0.6419390692 (MINimum)

   No.   Row name        Activity     Lower bound   Upper bound
------ ------------    ------------- ------------- -------------
     1 _C1                         0             0             = 
     2 _C10                 0.123217             0               
     3 _C11                        0             0               
     4 _C12                        4             4               
     5 _C2                         0             0             = 
     6 _C3                         0             0             = 
     7 _C4                         0             0             = 
     8 _C5                         0             0             = 
     9 _C6                    310.51                      505.67 
    10 _C7                    261.27                      503.68 
    11 _C8                     450.5                      701.78 
    12 _C9                 0.0278825             0               

   No. Column name       Activity     Lower bound   Upper bound
------ ------------    ------------- ------------- -------------
     1 z                    0.641939             0             1 
     2 x_0_0        *              0             0             1 
     3 x_0_1        *              1             0             1 
     4 x_0_2        *              0             0             1 
     5 y_0          *              1             0             1 
     6 x_1_1        *              0             0             1 
     7 x_2_1        *              0             0             1 
     8 x_3_1        *              0             0             1 
     9 x_4_1        *              0             0             1 
    10 x_1_2        *              0             0             1 
    11 x_2_2        *              0             0             1 
    12 x_3_2        *              1             0             1 
    13 x_4_2        *              1             0             1 
    14 y_1          *              0             0             1 
    15 y_2          *              1             0             1 
    16 y_3          *              1             0             1 
    17 y_4          *              1             0             1 
    18 x_1_0        *              0             0             1 
    19 x_2_0        *              1             0             1 
    20 x_3_0        *              0             0             1 
    21 x_4_0        *              0             0             1 

Integer feasibility conditions:

KKT.PE: max.abs.err = 0.00e+00 on row 0
        max.rel.err = 0.00e+00 on row 0
        High quality

KKT.PB: max.abs.err = 0.00e+00 on row 0
        max.rel.err = 0.00e+00 on row 0
        High quality

End of output
